/*objective function */

Min: 622 A1 + 614 A2 + 630 A3 + 641 B1 + 645 B2 + 649 B3;

/* Constraints */

A1 + B1 = 80;
A2 + B2 = 60;
A3 + B3 = 70;
A4 + B4 = 10;
A1 + A2 + A3 + A4 = 100;
B1 + B2 + B3 + B4 = 120;